Starting solution of the Linear programming relaxation problem using Primal Simplex

Coin0506I Presolve 43171 (-43120) rows, 1275 (0) columns and 88790 (-86240) elements
Clp0030I 46 infeas 0.098816451, obj 1029.341 - mu 6.9587255e-05, its 105, 162 interior
Clp1000I sum of infeasibilities 3.56279e-05 - average 8.25275e-10, 994 fixed columns
Coin0506I Presolve 1774 (-41397) rows, 281 (-994) columns and 4008 (-84782) elements
Clp0006I 0  Obj 1031.1485 Primal inf 3.3961244e-06 (7) Dual inf 2.1000001e+09 (271)
Clp0029I End of values pass after 281 iterations
Clp0014I Perturbing problem by 0.001% of 1 - largest nonzero change 2.982246e-05 ( 0.001491123%) - largest zero change 2.9394864e-05
Clp0000I Optimal - objective value 1024.9104
Clp0000I Optimal - objective value 1024.9104
Coin0511I After Postsolve, objective 1024.9104, infeasibilities - dual 0 (0), primal 0 (0)
Clp0006I 0  Obj 1024.9104
Clp0000I Optimal - objective value 1024.9104
Clp0000I Optimal - objective value 1024.9104
Clp0000I Optimal - objective value 1024.9104
Coin0511I After Postsolve, objective 1024.9104, infeasibilities - dual 0 (0), primal 0 (0)
Clp0032I Optimal objective 1024.910365 - 0 iterations time 1.202, Presolve 0.07, Idiot 1.13

Starting MIP optimization
Cbc0045I MIPStart provided solution with cost 1233.06
Cbc0012I Integer solution of 1233.0561 found by Reduced search after 0 iterations and 0 nodes (0.28 seconds)
Cbc0013I At root node, 0 cuts changed objective from 1024.9104 to 1024.9104 in 1 passes
Cbc0014I Cut generator 0 (LazyConstraints) - 0 row cuts average 0.0 elements, 0 column cuts (0 active)  in 0.031 seconds - new frequency is 1
Cbc0014I Cut generator 1 (Probing) - 0 row cuts average 0.0 elements, 0 column cuts (0 active)  in 0.000 seconds - new frequency is -100
Cbc0014I Cut generator 2 (Gomory) - 0 row cuts average 0.0 elements, 0 column cuts (0 active)  in 0.000 seconds - new frequency is -100
Cbc0014I Cut generator 3 (Knapsack) - 0 row cuts average 0.0 elements, 0 column cuts (0 active)  in 0.000 seconds - new frequency is -100
Cbc0014I Cut generator 4 (MixedIntegerRounding2) - 0 row cuts average 0.0 elements, 0 column cuts (0 active)  in 0.000 seconds - new frequency is -100
Cbc0014I Cut generator 5 (FlowCover) - 0 row cuts average 0.0 elements, 0 column cuts (0 active)  in 0.000 seconds - new frequency is -100
Cbc0014I Cut generator 6 (TwoMirCuts) - 0 row cuts average 0.0 elements, 0 column cuts (0 active)  in 0.000 seconds - new frequency is -100
Cbc0014I Cut generator 7 (ZeroHalf) - 0 row cuts average 0.0 elements, 0 column cuts (0 active)  in 0.000 seconds - new frequency is -100
Cbc0010I After 3 nodes, 4 on tree, 1233.0561 best solution, best possible 1024.9104 (1.42 seconds)
Cbc0010I After 6 nodes, 7 on tree, 1233.0561 best solution, best possible 1024.9104 (2.21 seconds)
Cbc0010I After 10 nodes, 9 on tree, 1233.0561 best solution, best possible 1024.9104 (3.01 seconds)
Cbc0010I After 14 nodes, 10 on tree, 1233.0561 best solution, best possible 1024.9104 (3.74 seconds)
Cbc0010I After 18 nodes, 12 on tree, 1233.0561 best solution, best possible 1024.9104 (4.69 seconds)
Cbc0010I After 22 nodes, 13 on tree, 1233.0561 best solution, best possible 1024.9104 (5.44 seconds)
Cbc0010I After 26 nodes, 16 on tree, 1233.0561 best solution, best possible 1024.9104 (6.20 seconds)
Cbc0010I After 35 nodes, 20 on tree, 1233.0561 best solution, best possible 1024.9104 (7.07 seconds)
Cbc0010I After 53 nodes, 17 on tree, 1233.0561 best solution, best possible 1024.9104 (7.82 seconds)
Cbc0010I After 70 nodes, 23 on tree, 1233.0561 best solution, best possible 1024.9104 (8.55 seconds)
Cbc0010I After 86 nodes, 16 on tree, 1233.0561 best solution, best possible 1024.9104 (9.34 seconds)
Cbc0010I After 96 nodes, 13 on tree, 1233.0561 best solution, best possible 1024.9104 (10.12 seconds)
Cbc0010I After 105 nodes, 15 on tree, 1233.0561 best solution, best possible 1024.9104 (10.83 seconds)
Cbc0010I After 111 nodes, 18 on tree, 1233.0561 best solution, best possible 1024.9104 (11.56 seconds)
Cbc0010I After 118 nodes, 21 on tree, 1233.0561 best solution, best possible 1024.9104 (12.29 seconds)
Cbc0010I After 128 nodes, 21 on tree, 1233.0561 best solution, best possible 1024.9104 (13.02 seconds)
Cbc0010I After 135 nodes, 26 on tree, 1233.0561 best solution, best possible 1024.9104 (13.74 seconds)
Cbc0010I After 148 nodes, 32 on tree, 1233.0561 best solution, best possible 1024.9104 (14.50 seconds)
Cbc0010I After 167 nodes, 25 on tree, 1233.0561 best solution, best possible 1024.9104 (15.30 seconds)
Cbc0010I After 174 nodes, 27 on tree, 1233.0561 best solution, best possible 1024.9104 (16.07 seconds)
Cbc0010I After 183 nodes, 28 on tree, 1233.0561 best solution, best possible 1024.9104 (16.92 seconds)
Cbc0010I After 191 nodes, 29 on tree, 1233.0561 best solution, best possible 1024.9104 (17.64 seconds)
Cbc0010I After 199 nodes, 25 on tree, 1233.0561 best solution, best possible 1024.9104 (18.35 seconds)
Cbc0010I After 205 nodes, 26 on tree, 1233.0561 best solution, best possible 1024.9104 (19.07 seconds)
Cbc0010I After 220 nodes, 26 on tree, 1233.0561 best solution, best possible 1024.9104 (19.79 seconds)
Cbc0010I After 235 nodes, 25 on tree, 1233.0561 best solution, best possible 1024.9104 (20.52 seconds)
Cbc0010I After 246 nodes, 22 on tree, 1233.0561 best solution, best possible 1024.9104 (21.26 seconds)
Cbc0010I After 255 nodes, 24 on tree, 1233.0561 best solution, best possible 1024.9104 (21.96 seconds)
Cbc0010I After 265 nodes, 25 on tree, 1233.0561 best solution, best possible 1024.9104 (22.73 seconds)
Cbc0010I After 275 nodes, 25 on tree, 1233.0561 best solution, best possible 1024.9104 (23.77 seconds)
Cbc0010I After 281 nodes, 27 on tree, 1233.0561 best solution, best possible 1024.9104 (24.47 seconds)
Cbc0010I After 287 nodes, 30 on tree, 1233.0561 best solution, best possible 1024.9104 (25.21 seconds)
Cbc0010I After 296 nodes, 30 on tree, 1233.0561 best solution, best possible 1024.9104 (26.02 seconds)
Cbc0010I After 308 nodes, 32 on tree, 1233.0561 best solution, best possible 1024.9104 (26.77 seconds)
Cbc0010I After 319 nodes, 32 on tree, 1233.0561 best solution, best possible 1024.9104 (27.50 seconds)
Cbc0010I After 334 nodes, 30 on tree, 1233.0561 best solution, best possible 1024.9104 (28.32 seconds)
Cbc0010I After 341 nodes, 32 on tree, 1233.0561 best solution, best possible 1024.9104 (29.09 seconds)
Cbc0010I After 349 nodes, 33 on tree, 1233.0561 best solution, best possible 1024.9104 (29.82 seconds)
Cbc0010I After 360 nodes, 33 on tree, 1233.0561 best solution, best possible 1024.9104 (30.54 seconds)
Cbc0010I After 369 nodes, 33 on tree, 1233.0561 best solution, best possible 1024.9104 (31.24 seconds)
Cbc0010I After 380 nodes, 34 on tree, 1233.0561 best solution, best possible 1024.9104 (31.96 seconds)
Cbc0010I After 394 nodes, 31 on tree, 1233.0561 best solution, best possible 1024.9104 (32.68 seconds)
Cbc0010I After 404 nodes, 30 on tree, 1233.0561 best solution, best possible 1024.9104 (33.50 seconds)
Cbc0010I After 415 nodes, 28 on tree, 1233.0561 best solution, best possible 1024.9104 (34.29 seconds)
Cbc0010I After 429 nodes, 25 on tree, 1233.0561 best solution, best possible 1024.9104 (35.09 seconds)
Cbc0010I After 441 nodes, 27 on tree, 1233.0561 best solution, best possible 1024.9104 (36.01 seconds)
Cbc0010I After 449 nodes, 29 on tree, 1233.0561 best solution, best possible 1024.9104 (36.74 seconds)
Cbc0010I After 462 nodes, 31 on tree, 1233.0561 best solution, best possible 1024.9104 (37.45 seconds)
Cbc0010I After 469 nodes, 33 on tree, 1233.0561 best solution, best possible 1024.9104 (38.25 seconds)
Cbc0010I After 483 nodes, 33 on tree, 1233.0561 best solution, best possible 1024.9104 (39.04 seconds)
Cbc0010I After 498 nodes, 32 on tree, 1233.0561 best solution, best possible 1024.9104 (39.88 seconds)
Cbc0010I After 512 nodes, 31 on tree, 1233.0561 best solution, best possible 1024.9104 (40.60 seconds)
Cbc0010I After 529 nodes, 30 on tree, 1233.0561 best solution, best possible 1024.9104 (41.43 seconds)
Cbc0010I After 543 nodes, 29 on tree, 1233.0561 best solution, best possible 1024.9104 (42.18 seconds)
Cbc0010I After 550 nodes, 33 on tree, 1233.0561 best solution, best possible 1024.9104 (42.94 seconds)
Cbc0010I After 568 nodes, 29 on tree, 1233.0561 best solution, best possible 1024.9104 (43.69 seconds)
Cbc0010I After 582 nodes, 27 on tree, 1233.0561 best solution, best possible 1024.9104 (44.39 seconds)
Cbc0010I After 596 nodes, 27 on tree, 1233.0561 best solution, best possible 1024.9104 (45.38 seconds)
Cbc0010I After 601 nodes, 28 on tree, 1233.0561 best solution, best possible 1024.9104 (46.12 seconds)
Cbc0010I After 607 nodes, 28 on tree, 1233.0561 best solution, best possible 1024.9104 (46.85 seconds)
Cbc0010I After 626 nodes, 27 on tree, 1233.0561 best solution, best possible 1024.9104 (47.63 seconds)
Cbc0010I After 636 nodes, 26 on tree, 1233.0561 best solution, best possible 1024.9104 (48.38 seconds)
Cbc0010I After 640 nodes, 28 on tree, 1233.0561 best solution, best possible 1024.9104 (49.17 seconds)
Cbc0010I After 647 nodes, 33 on tree, 1233.0561 best solution, best possible 1024.9104 (50.12 seconds)
Cbc0010I After 653 nodes, 33 on tree, 1233.0561 best solution, best possible 1024.9104 (50.88 seconds)
Cbc0010I After 664 nodes, 40 on tree, 1233.0561 best solution, best possible 1024.9104 (51.60 seconds)
Cbc0010I After 678 nodes, 38 on tree, 1233.0561 best solution, best possible 1024.9104 (52.37 seconds)
Cbc0010I After 688 nodes, 37 on tree, 1233.0561 best solution, best possible 1024.9104 (53.18 seconds)
Cbc0010I After 702 nodes, 36 on tree, 1233.0561 best solution, best possible 1024.9104 (53.92 seconds)
Cbc0010I After 715 nodes, 38 on tree, 1233.0561 best solution, best possible 1024.9104 (54.70 seconds)
Cbc0010I After 729 nodes, 38 on tree, 1233.0561 best solution, best possible 1024.9104 (55.43 seconds)
Cbc0010I After 744 nodes, 38 on tree, 1233.0561 best solution, best possible 1024.9104 (56.19 seconds)
Cbc0010I After 763 nodes, 33 on tree, 1233.0561 best solution, best possible 1024.9104 (56.92 seconds)
Cbc0010I After 778 nodes, 36 on tree, 1233.0561 best solution, best possible 1024.9104 (57.65 seconds)
Cbc0010I After 794 nodes, 36 on tree, 1233.0561 best solution, best possible 1024.9104 (58.42 seconds)
Cbc0010I After 805 nodes, 37 on tree, 1233.0561 best solution, best possible 1024.9104 (59.13 seconds)
Cbc0010I After 818 nodes, 42 on tree, 1233.0561 best solution, best possible 1024.9104 (59.83 seconds)
Cbc0010I After 835 nodes, 36 on tree, 1233.0561 best solution, best possible 1024.9104 (60.55 seconds)
Cbc0010I After 851 nodes, 35 on tree, 1233.0561 best solution, best possible 1024.9104 (61.27 seconds)
Cbc0010I After 860 nodes, 39 on tree, 1233.0561 best solution, best possible 1024.9104 (62.02 seconds)
Cbc0010I After 868 nodes, 43 on tree, 1233.0561 best solution, best possible 1024.9104 (62.75 seconds)
Cbc0010I After 874 nodes, 45 on tree, 1233.0561 best solution, best possible 1024.9104 (63.49 seconds)
Cbc0010I After 882 nodes, 49 on tree, 1233.0561 best solution, best possible 1024.9104 (64.19 seconds)
Cbc0010I After 892 nodes, 51 on tree, 1233.0561 best solution, best possible 1024.9104 (64.94 seconds)
Cbc0010I After 904 nodes, 53 on tree, 1233.0561 best solution, best possible 1024.9104 (65.65 seconds)
Cbc0010I After 917 nodes, 57 on tree, 1233.0561 best solution, best possible 1024.9104 (66.39 seconds)
Cbc0010I After 931 nodes, 56 on tree, 1233.0561 best solution, best possible 1024.9104 (67.14 seconds)
Cbc0010I After 945 nodes, 53 on tree, 1233.0561 best solution, best possible 1024.9104 (67.86 seconds)
Cbc0010I After 958 nodes, 53 on tree, 1233.0561 best solution, best possible 1024.9104 (68.60 seconds)
Cbc0010I After 973 nodes, 51 on tree, 1233.0561 best solution, best possible 1024.9104 (69.31 seconds)
Cbc0010I After 989 nodes, 51 on tree, 1233.0561 best solution, best possible 1024.9104 (70.07 seconds)
Cbc0010I After 1003 nodes, 49 on tree, 1233.0561 best solution, best possible 1036.7438 (70.96 seconds)
Cbc0010I After 1008 nodes, 54 on tree, 1233.0561 best solution, best possible 1036.7438 (71.70 seconds)
Cbc0010I After 1014 nodes, 60 on tree, 1233.0561 best solution, best possible 1036.7438 (72.46 seconds)
Cbc0010I After 1022 nodes, 68 on tree, 1233.0561 best solution, best possible 1036.7438 (73.24 seconds)
Cbc0010I After 1030 nodes, 76 on tree, 1233.0561 best solution, best possible 1036.7438 (73.98 seconds)
Cbc0010I After 1038 nodes, 84 on tree, 1233.0561 best solution, best possible 1036.7438 (74.77 seconds)
Cbc0010I After 1047 nodes, 93 on tree, 1233.0561 best solution, best possible 1036.7438 (75.57 seconds)
Cbc0010I After 1056 nodes, 102 on tree, 1233.0561 best solution, best possible 1036.7438 (76.38 seconds)
Cbc0010I After 1065 nodes, 111 on tree, 1233.0561 best solution, best possible 1036.7438 (77.12 seconds)
Cbc0010I After 1074 nodes, 120 on tree, 1233.0561 best solution, best possible 1036.7438 (77.91 seconds)
Cbc0010I After 1082 nodes, 128 on tree, 1233.0561 best solution, best possible 1036.7438 (78.69 seconds)
Cbc0010I After 1089 nodes, 135 on tree, 1233.0561 best solution, best possible 1036.7438 (79.48 seconds)
Cbc0004I Integer solution of 1225.0425 found after 132987 iterations and 1098 nodes (79.96 seconds)
Cbc0004I Integer solution of 1202.2319 found after 133279 iterations and 1099 nodes (80.08 seconds)
Cbc0010I After 1100 nodes, 105 on tree, 1202.2319 best solution, best possible 1036.7438 (80.19 seconds)
Cbc0010I After 1108 nodes, 104 on tree, 1202.2319 best solution, best possible 1036.7438 (80.91 seconds)
Cbc0010I After 1118 nodes, 103 on tree, 1202.2319 best solution, best possible 1036.7438 (81.61 seconds)
Cbc0010I After 1124 nodes, 105 on tree, 1202.2319 best solution, best possible 1036.7438 (82.38 seconds)
Cbc0010I After 1131 nodes, 106 on tree, 1202.2319 best solution, best possible 1036.7438 (83.17 seconds)
Cbc0004I Integer solution of 1192.4098 found after 140886 iterations and 1134 nodes (83.56 seconds)
Cbc0010I After 1137 nodes, 97 on tree, 1192.4098 best solution, best possible 1036.7438 (83.95 seconds)
Cbc0010I After 1143 nodes, 96 on tree, 1192.4098 best solution, best possible 1036.7438 (84.85 seconds)
Cbc0004I Integer solution of 1165.5301 found after 146317 iterations and 1150 nodes (85.71 seconds)
Cbc0010I After 1150 nodes, 86 on tree, 1165.5301 best solution, best possible 1036.7438 (85.72 seconds)
Cbc0010I After 1158 nodes, 85 on tree, 1165.5301 best solution, best possible 1036.7438 (86.48 seconds)
Cbc0010I After 1164 nodes, 84 on tree, 1165.5301 best solution, best possible 1036.7438 (87.20 seconds)
Cbc0010I After 1173 nodes, 84 on tree, 1165.5301 best solution, best possible 1036.7438 (88.04 seconds)
Cbc0010I After 1182 nodes, 81 on tree, 1165.5301 best solution, best possible 1036.7438 (88.74 seconds)
Cbc0010I After 1192 nodes, 81 on tree, 1165.5301 best solution, best possible 1036.7438 (89.45 seconds)
Cbc0010I After 1207 nodes, 75 on tree, 1165.5301 best solution, best possible 1036.7438 (90.19 seconds)
Cbc0010I After 1215 nodes, 75 on tree, 1165.5301 best solution, best possible 1036.7438 (90.95 seconds)
Cbc0010I After 1223 nodes, 76 on tree, 1165.5301 best solution, best possible 1036.7438 (91.72 seconds)
Cbc0010I After 1231 nodes, 77 on tree, 1165.5301 best solution, best possible 1036.7438 (92.46 seconds)
Cbc0010I After 1238 nodes, 80 on tree, 1165.5301 best solution, best possible 1036.7438 (93.19 seconds)
Cbc0010I After 1245 nodes, 83 on tree, 1165.5301 best solution, best possible 1036.7438 (93.92 seconds)
Cbc0010I After 1251 nodes, 87 on tree, 1165.5301 best solution, best possible 1036.7438 (94.64 seconds)
Cbc0010I After 1269 nodes, 88 on tree, 1165.5301 best solution, best possible 1036.7438 (95.40 seconds)
Cbc0010I After 1285 nodes, 88 on tree, 1165.5301 best solution, best possible 1036.7438 (96.11 seconds)
Cbc0010I After 1297 nodes, 92 on tree, 1165.5301 best solution, best possible 1036.7438 (96.93 seconds)
Cbc0010I After 1304 nodes, 96 on tree, 1165.5301 best solution, best possible 1036.7438 (97.67 seconds)
Cbc0010I After 1315 nodes, 99 on tree, 1165.5301 best solution, best possible 1036.7438 (98.40 seconds)
Cbc0010I After 1324 nodes, 98 on tree, 1165.5301 best solution, best possible 1036.7438 (99.11 seconds)
Cbc0010I After 1334 nodes, 99 on tree, 1165.5301 best solution, best possible 1036.7438 (99.83 seconds)
Cbc0010I After 1347 nodes, 103 on tree, 1165.5301 best solution, best possible 1036.7438 (100.57 seconds)
Cbc0010I After 1362 nodes, 102 on tree, 1165.5301 best solution, best possible 1036.7438 (101.28 seconds)
Cbc0010I After 1374 nodes, 106 on tree, 1165.5301 best solution, best possible 1036.7438 (102.05 seconds)
Cbc0010I After 1385 nodes, 110 on tree, 1165.5301 best solution, best possible 1036.7438 (102.80 seconds)
Cbc0010I After 1394 nodes, 111 on tree, 1165.5301 best solution, best possible 1036.7438 (103.59 seconds)
Cbc0010I After 1410 nodes, 110 on tree, 1165.5301 best solution, best possible 1036.7438 (104.37 seconds)
Cbc0010I After 1421 nodes, 111 on tree, 1165.5301 best solution, best possible 1036.7438 (105.13 seconds)
Cbc0010I After 1429 nodes, 114 on tree, 1165.5301 best solution, best possible 1036.7438 (105.86 seconds)
Cbc0010I After 1449 nodes, 113 on tree, 1165.5301 best solution, best possible 1036.7438 (106.57 seconds)
Cbc0010I After 1464 nodes, 114 on tree, 1165.5301 best solution, best possible 1036.7438 (107.35 seconds)
Cbc0010I After 1479 nodes, 116 on tree, 1165.5301 best solution, best possible 1036.7438 (108.13 seconds)
Cbc0010I After 1491 nodes, 116 on tree, 1165.5301 best solution, best possible 1036.7438 (108.88 seconds)
Cbc0010I After 1503 nodes, 119 on tree, 1165.5301 best solution, best possible 1036.7438 (109.59 seconds)
Cbc0010I After 1521 nodes, 116 on tree, 1165.5301 best solution, best possible 1036.7438 (110.29 seconds)
Cbc0010I After 1530 nodes, 121 on tree, 1165.5301 best solution, best possible 1036.7438 (111.01 seconds)
Cbc0010I After 1549 nodes, 121 on tree, 1165.5301 best solution, best possible 1036.7438 (111.76 seconds)
Cbc0010I After 1562 nodes, 119 on tree, 1165.5301 best solution, best possible 1036.7438 (112.49 seconds)
Cbc0010I After 1576 nodes, 123 on tree, 1165.5301 best solution, best possible 1036.7438 (113.21 seconds)
Cbc0010I After 1589 nodes, 124 on tree, 1165.5301 best solution, best possible 1036.7438 (113.99 seconds)
Cbc0010I After 1606 nodes, 119 on tree, 1165.5301 best solution, best possible 1036.7438 (114.69 seconds)
Cbc0010I After 1619 nodes, 121 on tree, 1165.5301 best solution, best possible 1036.7438 (115.42 seconds)
Cbc0010I After 1630 nodes, 122 on tree, 1165.5301 best solution, best possible 1036.7438 (116.18 seconds)
Cbc0010I After 1642 nodes, 122 on tree, 1165.5301 best solution, best possible 1036.7438 (116.90 seconds)
Cbc0010I After 1662 nodes, 119 on tree, 1165.5301 best solution, best possible 1036.7438 (117.60 seconds)
Cbc0010I After 1674 nodes, 117 on tree, 1165.5301 best solution, best possible 1036.7438 (118.36 seconds)
Cbc0010I After 1686 nodes, 117 on tree, 1165.5301 best solution, best possible 1036.7438 (119.14 seconds)
Cbc0010I After 1697 nodes, 119 on tree, 1165.5301 best solution, best possible 1036.7438 (119.85 seconds)
Cbc0010I After 1709 nodes, 122 on tree, 1165.5301 best solution, best possible 1036.7438 (120.65 seconds)
Cbc0010I After 1720 nodes, 123 on tree, 1165.5301 best solution, best possible 1036.7438 (121.38 seconds)
Cbc0010I After 1734 nodes, 126 on tree, 1165.5301 best solution, best possible 1036.7438 (122.14 seconds)
Cbc0010I After 1752 nodes, 121 on tree, 1165.5301 best solution, best possible 1036.7438 (122.88 seconds)
Cbc0010I After 1762 nodes, 122 on tree, 1165.5301 best solution, best possible 1036.7438 (123.69 seconds)
Cbc0010I After 1768 nodes, 125 on tree, 1165.5301 best solution, best possible 1036.7438 (124.41 seconds)
Cbc0010I After 1777 nodes, 126 on tree, 1165.5301 best solution, best possible 1036.7438 (125.12 seconds)
Cbc0010I After 1793 nodes, 121 on tree, 1165.5301 best solution, best possible 1036.7438 (125.87 seconds)
Cbc0010I After 1806 nodes, 121 on tree, 1165.5301 best solution, best possible 1036.7438 (126.58 seconds)
Cbc0010I After 1817 nodes, 121 on tree, 1165.5301 best solution, best possible 1036.7438 (127.29 seconds)
Cbc0010I After 1830 nodes, 121 on tree, 1165.5301 best solution, best possible 1036.7438 (128.01 seconds)
Cbc0010I After 1850 nodes, 120 on tree, 1165.5301 best solution, best possible 1036.7438 (128.72 seconds)
Cbc0010I After 1861 nodes, 122 on tree, 1165.5301 best solution, best possible 1036.7438 (129.46 seconds)
Cbc0004I Integer solution of 1165.2912 found after 217564 iterations and 1869 nodes (130.13 seconds)
Cbc0010I After 1872 nodes, 122 on tree, 1165.2912 best solution, best possible 1036.7438 (130.29 seconds)
Cbc0004I Integer solution of 1164.6809 found after 217791 iterations and 1873 nodes (130.41 seconds)
Cbc0010I After 1885 nodes, 122 on tree, 1164.6809 best solution, best possible 1036.7438 (131.00 seconds)
Cbc0010I After 1896 nodes, 124 on tree, 1164.6809 best solution, best possible 1036.7438 (131.71 seconds)
Cbc0010I After 1911 nodes, 122 on tree, 1164.6809 best solution, best possible 1036.7438 (132.41 seconds)
Cbc0010I After 1926 nodes, 119 on tree, 1164.6809 best solution, best possible 1036.7438 (133.21 seconds)
Cbc0010I After 1943 nodes, 114 on tree, 1164.6809 best solution, best possible 1036.7438 (134.02 seconds)
Cbc0010I After 1953 nodes, 116 on tree, 1164.6809 best solution, best possible 1036.7438 (134.75 seconds)
Cbc0010I After 1965 nodes, 115 on tree, 1164.6809 best solution, best possible 1036.7438 (135.50 seconds)
Cbc0010I After 1982 nodes, 113 on tree, 1164.6809 best solution, best possible 1036.7438 (136.23 seconds)
Cbc0010I After 1992 nodes, 116 on tree, 1164.6809 best solution, best possible 1036.7438 (136.96 seconds)
Cbc0010I After 2008 nodes, 115 on tree, 1164.6809 best solution, best possible 1036.7438 (137.72 seconds)
Cbc0010I After 2025 nodes, 111 on tree, 1164.6809 best solution, best possible 1036.7438 (138.43 seconds)
Cbc0010I After 2040 nodes, 111 on tree, 1164.6809 best solution, best possible 1036.7438 (139.13 seconds)
Cbc0010I After 2054 nodes, 110 on tree, 1164.6809 best solution, best possible 1036.7438 (139.91 seconds)
Cbc0010I After 2062 nodes, 108 on tree, 1164.6809 best solution, best possible 1036.7438 (140.61 seconds)
Cbc0010I After 2082 nodes, 103 on tree, 1164.6809 best solution, best possible 1036.7438 (141.42 seconds)
Cbc0010I After 2090 nodes, 107 on tree, 1164.6809 best solution, best possible 1036.7438 (142.13 seconds)
Cbc0010I After 2100 nodes, 106 on tree, 1164.6809 best solution, best possible 1036.7438 (142.84 seconds)
Cbc0010I After 2112 nodes, 107 on tree, 1164.6809 best solution, best possible 1036.7438 (143.58 seconds)
Cbc0010I After 2136 nodes, 100 on tree, 1164.6809 best solution, best possible 1036.7438 (144.35 seconds)
Cbc0010I After 2150 nodes, 97 on tree, 1164.6809 best solution, best possible 1036.7438 (145.06 seconds)
Cbc0010I After 2163 nodes, 95 on tree, 1164.6809 best solution, best possible 1036.7438 (145.79 seconds)
Cbc0010I After 2179 nodes, 92 on tree, 1164.6809 best solution, best possible 1036.7438 (146.49 seconds)
Cbc0010I After 2198 nodes, 89 on tree, 1164.6809 best solution, best possible 1036.7438 (147.21 seconds)
Cbc0010I After 2213 nodes, 86 on tree, 1164.6809 best solution, best possible 1036.7438 (147.93 seconds)
Cbc0010I After 2233 nodes, 83 on tree, 1164.6809 best solution, best possible 1036.7438 (148.72 seconds)
Cbc0010I After 2244 nodes, 82 on tree, 1164.6809 best solution, best possible 1036.7438 (149.45 seconds)
Cbc0010I After 2256 nodes, 81 on tree, 1164.6809 best solution, best possible 1036.7438 (150.16 seconds)
Cbc0010I After 2268 nodes, 79 on tree, 1164.6809 best solution, best possible 1036.7438 (150.88 seconds)
Cbc0010I After 2278 nodes, 80 on tree, 1164.6809 best solution, best possible 1036.7438 (151.62 seconds)
Cbc0010I After 2293 nodes, 81 on tree, 1164.6809 best solution, best possible 1036.7438 (152.32 seconds)
Cbc0010I After 2311 nodes, 76 on tree, 1164.6809 best solution, best possible 1036.7438 (153.05 seconds)
Cbc0010I After 2321 nodes, 78 on tree, 1164.6809 best solution, best possible 1036.7438 (153.76 seconds)
Cbc0010I After 2334 nodes, 82 on tree, 1164.6809 best solution, best possible 1036.7438 (154.56 seconds)
Cbc0010I After 2343 nodes, 84 on tree, 1164.6809 best solution, best possible 1036.7438 (155.30 seconds)
Cbc0010I After 2356 nodes, 85 on tree, 1164.6809 best solution, best possible 1036.7438 (156.02 seconds)
Cbc0010I After 2375 nodes, 83 on tree, 1164.6809 best solution, best possible 1036.7438 (156.73 seconds)
Cbc0010I After 2402 nodes, 72 on tree, 1164.6809 best solution, best possible 1036.7438 (157.52 seconds)
Cbc0004I Integer solution of 1162.0396 found after 260042 iterations and 2409 nodes (158.08 seconds)
Cbc0010I After 2416 nodes, 67 on tree, 1162.0396 best solution, best possible 1036.7438 (158.27 seconds)
Cbc0010I After 2436 nodes, 59 on tree, 1162.0396 best solution, best possible 1036.7438 (159.01 seconds)
Cbc0010I After 2455 nodes, 56 on tree, 1162.0396 best solution, best possible 1036.7438 (159.71 seconds)
Cbc0010I After 2462 nodes, 57 on tree, 1162.0396 best solution, best possible 1036.7438 (160.42 seconds)
Cbc0010I After 2478 nodes, 55 on tree, 1162.0396 best solution, best possible 1036.7438 (161.12 seconds)
Cbc0010I After 2494 nodes, 53 on tree, 1162.0396 best solution, best possible 1036.7438 (161.90 seconds)
Cbc0010I After 2515 nodes, 46 on tree, 1162.0396 best solution, best possible 1036.7438 (162.61 seconds)
Cbc0010I After 2533 nodes, 41 on tree, 1162.0396 best solution, best possible 1036.7438 (163.34 seconds)
Cbc0010I After 2550 nodes, 37 on tree, 1162.0396 best solution, best possible 1036.7438 (164.04 seconds)
Cbc0010I After 2561 nodes, 36 on tree, 1162.0396 best solution, best possible 1036.7438 (164.79 seconds)
Cbc0010I After 2573 nodes, 37 on tree, 1162.0396 best solution, best possible 1036.7438 (165.61 seconds)
Cbc0010I After 2587 nodes, 32 on tree, 1162.0396 best solution, best possible 1036.7438 (166.36 seconds)
Cbc0010I After 2603 nodes, 30 on tree, 1162.0396 best solution, best possible 1036.7438 (167.10 seconds)
Cbc0010I After 2619 nodes, 31 on tree, 1162.0396 best solution, best possible 1036.7438 (167.90 seconds)
Cbc0010I After 2639 nodes, 24 on tree, 1162.0396 best solution, best possible 1036.7438 (168.61 seconds)
Cbc0010I After 2670 nodes, 10 on tree, 1162.0396 best solution, best possible 1036.7438 (169.33 seconds)
Cbc0010I After 2679 nodes, 9 on tree, 1162.0396 best solution, best possible 1036.7438 (170.08 seconds)
Cbc0010I After 2691 nodes, 16 on tree, 1162.0396 best solution, best possible 1036.7438 (170.81 seconds)
Cbc0010I After 2706 nodes, 17 on tree, 1162.0396 best solution, best possible 1036.7438 (171.56 seconds)
Cbc0010I After 2715 nodes, 21 on tree, 1162.0396 best solution, best possible 1036.7438 (172.37 seconds)
Cbc0010I After 2730 nodes, 19 on tree, 1162.0396 best solution, best possible 1036.7438 (173.08 seconds)
Cbc0010I After 2745 nodes, 16 on tree, 1162.0396 best solution, best possible 1036.7438 (173.81 seconds)
Cbc0010I After 2764 nodes, 15 on tree, 1162.0396 best solution, best possible 1036.7438 (174.61 seconds)
Cbc0010I After 2778 nodes, 17 on tree, 1162.0396 best solution, best possible 1036.7438 (175.31 seconds)
Cbc0010I After 2797 nodes, 13 on tree, 1162.0396 best solution, best possible 1036.7438 (176.06 seconds)
Cbc0010I After 2815 nodes, 10 on tree, 1162.0396 best solution, best possible 1036.7438 (176.84 seconds)
Cbc0010I After 2822 nodes, 13 on tree, 1162.0396 best solution, best possible 1036.7438 (177.57 seconds)
Cbc0010I After 2835 nodes, 16 on tree, 1162.0396 best solution, best possible 1036.7438 (178.30 seconds)
Cbc0010I After 2846 nodes, 17 on tree, 1162.0396 best solution, best possible 1036.7438 (179.00 seconds)
Cbc0010I After 2860 nodes, 16 on tree, 1162.0396 best solution, best possible 1036.7438 (179.72 seconds)
Cbc0010I After 2884 nodes, 9 on tree, 1162.0396 best solution, best possible 1036.7438 (180.43 seconds)
Cbc0010I After 2895 nodes, 9 on tree, 1162.0396 best solution, best possible 1036.7438 (181.13 seconds)
Cbc0010I After 2904 nodes, 11 on tree, 1162.0396 best solution, best possible 1036.7438 (181.92 seconds)
Cbc0010I After 2910 nodes, 13 on tree, 1162.0396 best solution, best possible 1036.7438 (182.63 seconds)
Cbc0010I After 2923 nodes, 15 on tree, 1162.0396 best solution, best possible 1036.7438 (183.37 seconds)
Cbc0010I After 2934 nodes, 16 on tree, 1162.0396 best solution, best possible 1036.7438 (184.11 seconds)
Cbc0010I After 2947 nodes, 16 on tree, 1162.0396 best solution, best possible 1036.7438 (184.82 seconds)
Cbc0010I After 2963 nodes, 16 on tree, 1162.0396 best solution, best possible 1036.7438 (185.54 seconds)
Cbc0010I After 2974 nodes, 18 on tree, 1162.0396 best solution, best possible 1036.7438 (186.31 seconds)
Cbc0010I After 2996 nodes, 15 on tree, 1162.0396 best solution, best possible 1036.7438 (187.08 seconds)
Cbc0010I After 3017 nodes, 11 on tree, 1162.0396 best solution, best possible 1036.7438 (187.80 seconds)
Cbc0010I After 3034 nodes, 12 on tree, 1162.0396 best solution, best possible 1036.7438 (188.52 seconds)
Cbc0010I After 3050 nodes, 10 on tree, 1162.0396 best solution, best possible 1036.7438 (189.25 seconds)
Cbc0010I After 3068 nodes, 9 on tree, 1162.0396 best solution, best possible 1036.7438 (189.99 seconds)
Cbc0010I After 3081 nodes, 10 on tree, 1162.0396 best solution, best possible 1036.7438 (190.69 seconds)
Cbc0010I After 3093 nodes, 15 on tree, 1162.0396 best solution, best possible 1036.7438 (191.43 seconds)
Cbc0010I After 3102 nodes, 19 on tree, 1162.0396 best solution, best possible 1036.7438 (192.17 seconds)
Cbc0010I After 3113 nodes, 20 on tree, 1162.0396 best solution, best possible 1036.7438 (192.90 seconds)
Cbc0010I After 3129 nodes, 19 on tree, 1162.0396 best solution, best possible 1036.7438 (193.63 seconds)
Cbc0010I After 3149 nodes, 16 on tree, 1162.0396 best solution, best possible 1036.7438 (194.36 seconds)
Cbc0010I After 3159 nodes, 17 on tree, 1162.0396 best solution, best possible 1036.7438 (195.12 seconds)
Cbc0010I After 3170 nodes, 17 on tree, 1162.0396 best solution, best possible 1036.7438 (195.85 seconds)
Cbc0010I After 3184 nodes, 13 on tree, 1162.0396 best solution, best possible 1036.7438 (196.55 seconds)
Cbc0010I After 3205 nodes, 9 on tree, 1162.0396 best solution, best possible 1036.7438 (197.28 seconds)
Cbc0010I After 3224 nodes, 9 on tree, 1162.0396 best solution, best possible 1036.7438 (198.05 seconds)
Cbc0010I After 3241 nodes, 7 on tree, 1162.0396 best solution, best possible 1036.7438 (198.82 seconds)
Cbc0010I After 3249 nodes, 12 on tree, 1162.0396 best solution, best possible 1036.7438 (199.62 seconds)
Cbc0010I After 3260 nodes, 14 on tree, 1162.0396 best solution, best possible 1036.7438 (200.40 seconds)
Cbc0010I After 3272 nodes, 19 on tree, 1162.0396 best solution, best possible 1036.7438 (201.17 seconds)
Cbc0010I After 3282 nodes, 24 on tree, 1162.0396 best solution, best possible 1036.7438 (201.90 seconds)
Cbc0010I After 3296 nodes, 26 on tree, 1162.0396 best solution, best possible 1036.7438 (202.66 seconds)
Cbc0010I After 3313 nodes, 28 on tree, 1162.0396 best solution, best possible 1036.7438 (203.36 seconds)
Cbc0010I After 3330 nodes, 33 on tree, 1162.0396 best solution, best possible 1036.7438 (204.08 seconds)
Cbc0010I After 3343 nodes, 34 on tree, 1162.0396 best solution, best possible 1036.7438 (204.80 seconds)
Cbc0010I After 3365 nodes, 32 on tree, 1162.0396 best solution, best possible 1036.7438 (205.53 seconds)
Cbc0010I After 3387 nodes, 23 on tree, 1162.0396 best solution, best possible 1036.7438 (206.23 seconds)
Cbc0010I After 3408 nodes, 20 on tree, 1162.0396 best solution, best possible 1036.7438 (206.99 seconds)
Cbc0010I After 3430 nodes, 14 on tree, 1162.0396 best solution, best possible 1036.7438 (207.72 seconds)
Cbc0010I After 3451 nodes, 8 on tree, 1162.0396 best solution, best possible 1036.7438 (208.47 seconds)
Cbc0010I After 3462 nodes, 7 on tree, 1162.0396 best solution, best possible 1036.7438 (209.22 seconds)
Cbc0010I After 3472 nodes, 10 on tree, 1162.0396 best solution, best possible 1036.7438 (209.95 seconds)
Cbc0010I After 3496 nodes, 4 on tree, 1162.0396 best solution, best possible 1036.7438 (210.74 seconds)
Cbc0010I After 3504 nodes, 10 on tree, 1162.0396 best solution, best possible 1036.7438 (211.59 seconds)
Cbc0010I After 3511 nodes, 12 on tree, 1162.0396 best solution, best possible 1036.7438 (212.36 seconds)
Cbc0010I After 3520 nodes, 17 on tree, 1162.0396 best solution, best possible 1036.7438 (213.07 seconds)
Cbc0010I After 3536 nodes, 19 on tree, 1162.0396 best solution, best possible 1036.7438 (213.78 seconds)
Cbc0010I After 3549 nodes, 25 on tree, 1162.0396 best solution, best possible 1036.7438 (214.49 seconds)
Cbc0010I After 3565 nodes, 25 on tree, 1162.0396 best solution, best possible 1036.7438 (215.26 seconds)
Cbc0010I After 3586 nodes, 23 on tree, 1162.0396 best solution, best possible 1036.7438 (215.99 seconds)
Cbc0010I After 3598 nodes, 23 on tree, 1162.0396 best solution, best possible 1036.7438 (216.73 seconds)
Cbc0010I After 3611 nodes, 24 on tree, 1162.0396 best solution, best possible 1036.7438 (217.59 seconds)
Cbc0010I After 3624 nodes, 26 on tree, 1162.0396 best solution, best possible 1036.7438 (218.34 seconds)
Cbc0010I After 3634 nodes, 26 on tree, 1162.0396 best solution, best possible 1036.7438 (219.04 seconds)
Cbc0010I After 3647 nodes, 29 on tree, 1162.0396 best solution, best possible 1036.7438 (219.77 seconds)
Cbc0010I After 3665 nodes, 29 on tree, 1162.0396 best solution, best possible 1036.7438 (220.55 seconds)
Cbc0010I After 3682 nodes, 26 on tree, 1162.0396 best solution, best possible 1036.7438 (221.26 seconds)
Cbc0010I AftModell wird erstellt...
Suche Startlösung...
None
Suche optimale Lösung...
OptimizationStatus.OPTIMAL
C:\Users\Philip\Documents\programmieren\python\bwinf41-2\weniger-krumme-touren\beispiele\random\50\503.txt
Lösung gefunden!
er 3697 nodes, 22 on tree, 1162.0396 best solution, best possible 1036.7438 (221.99 seconds)
Cbc0010I After 3734 nodes, 6 on tree, 1162.0396 best solution, best possible 1036.7438 (222.75 seconds)
Cbc0010I After 3746 nodes, 8 on tree, 1162.0396 best solution, best possible 1036.7438 (223.47 seconds)
Cbc0010I After 3756 nodes, 9 on tree, 1162.0396 best solution, best possible 1036.7438 (224.30 seconds)
Cbc0010I After 3771 nodes, 6 on tree, 1162.0396 best solution, best possible 1036.7438 (225.04 seconds)
Cbc0010I After 3786 nodes, 3 on tree, 1162.0396 best solution, best possible 1036.7438 (225.76 seconds)
Cbc0010I After 3791 nodes, 7 on tree, 1162.0396 best solution, best possible 1036.7438 (226.48 seconds)
Cbc0010I After 3800 nodes, 8 on tree, 1162.0396 best solution, best possible 1036.7438 (227.22 seconds)
Cbc0010I After 3818 nodes, 7 on tree, 1162.0396 best solution, best possible 1036.7438 (227.96 seconds)
Cbc0010I After 3826 nodes, 6 on tree, 1162.0396 best solution, best possible 1036.7438 (228.69 seconds)
Cbc0010I After 3842 nodes, 4 on tree, 1162.0396 best solution, best possible 1036.7438 (229.45 seconds)
Cbc0010I After 3850 nodes, 10 on tree, 1162.0396 best solution, best possible 1036.7438 (230.18 seconds)
Cbc0010I After 3862 nodes, 13 on tree, 1162.0396 best solution, best possible 1036.7438 (230.91 seconds)
Cbc0010I After 3878 nodes, 11 on tree, 1162.0396 best solution, best possible 1036.7438 (231.71 seconds)
Cbc0010I After 3894 nodes, 7 on tree, 1162.0396 best solution, best possible 1036.7438 (232.41 seconds)
Cbc0010I After 3902 nodes, 11 on tree, 1162.0396 best solution, best possible 1036.7438 (233.12 seconds)
Cbc0010I After 3919 nodes, 8 on tree, 1162.0396 best solution, best possible 1036.7438 (233.83 seconds)
Cbc0010I After 3936 nodes, 4 on tree, 1162.0396 best solution, best possible 1036.7438 (234.59 seconds)
Cbc0010I After 3947 nodes, 3 on tree, 1162.0396 best solution, best possible 1036.7438 (235.35 seconds)
Cbc0010I After 3962 nodes, 6 on tree, 1162.0396 best solution, best possible 1036.7438 (236.10 seconds)
Cbc0010I After 3974 nodes, 3 on tree, 1162.0396 best solution, best possible 1121.9334 (236.82 seconds)
Cbc0001I Search completed - best objective 1162.039573917265, took 403455 iterations and 3977 nodes (236.97 seconds)
Cbc0032I Strong branching done 19948 times (407540 iterations), fathomed 759 nodes and fixed 3770 variables
Cbc0035I Maximum depth 94, 313015 variables fixed on reduced cost
Total time (CPU seconds):       237.06   (Wallclock seconds):       237.06

